# Solution for model Animal Food Production
# Objective value = 15176.5
use[0,0] 3.3230769230769229e+03
use[0,1] 8.5769230769230780e+03
use[1,0] 5.6769230769230771e+03
use[1,1] 2.6730769230769220e+03
use[2,0] 0
use[2,1] 750
produce[0] 9000
produce[1] 12000
